DIMACS2
40 19 163 82 114 180 316 311 299 89 79 154 261 113 181 38 219 294 51 120 173 12 312 217 162 7 24 135 101 169 34 274 96 53 17 168 204 156 272 207 72
p edge 320 1307
e 0 255 1.0
e 0 119 2.0
e 0 224 1.0
e 0 308 1.0
e 1 101 36.0
e 1 72 23.0
e 1 129 1.0
e 1 114 9.0
e 2 16 1.0
e 2 141 2.0
e 2 278 1.0
e 2 157 1.0
e 3 270 1.0
e 3 260 1.0
e 3 73 1.0
e 3 264 1.0
e 4 239 2.0
e 4 98 3.0
e 4 68 1.0
e 4 216 1.0
e 5 225 1.0
e 5 161 2.0
e 5 81 1.0
e 5 156 15.0
e 6 293 1.0
e 6 212 1.0
e 6 245 1.0
e 6 63 1.0
e 7 42 30.0
e 7 89 25.0
e 7 201 42.0
e 7 254 25.0
e 8 91 2.0
e 8 252 2.0
e 8 82 31.0
e 8 291 2.0
e 9 73 1.0
e 9 308 1.0
e 9 184 1.0
e 9 22 1.0
e 10 99 1.0
e 10 23 1.0
e 10 7 46.0
e 10 180 22.0
e 11 125 1.0
e 11 164 1.0
e 11 196 1.0
e 11 254 1.0
e 12 231 30.0
e 12 33 5.0
e 12 208 19.0
e 12 29 23.0
e 13 109 1.0
e 13 227 1.0
e 13 89 37.0
e 13 139 1.0
e 14 173 5.0
e 14 235 1.0
e 14 308 1.0
e 14 207 47.0
e 15 70 1.0
e 15 225 2.0
e 15 216 1.0
e 15 308 1.0
e 16 34 37.0
e 16 186 1.0
e 16 115 1.0
e 16 227 1.0
e 17 81 10.0
e 17 305 44.0
e 17 42 1.0
e 17 124 21.0
e 17 96 33.0
e 18 198 2.0
e 18 126 1.0
e 18 89 13.0
e 18 160 1.0
e 19 58 10.0
e 19 49 22.0
e 19 270 11.0
e 19 0 3.0
e 20 41 1.0
e 20 7 2.0
e 20 261 26.0
e 20 176 1.0
e 21 120 24.0
e 21 213 1.0
e 21 110 1.0
e 21 307 2.0
e 22 15 1.0
e 22 315 1.0
e 22 77 1.0
e 22 276 2.0
e 23 53 23.0
e 23 220 1.0
e 23 19 6.0
e 23 91 1.0
e 24 212 4.0
e 24 247 2.0
e 24 218 37.0
e 24 188 37.0
e 24 299 32.0
e 25 246 1.0
e 25 199 1.0
e 25 146 1.0
e 25 257 1.0
e 26 198 2.0
e 26 269 1.0
e 26 313 1.0
e 26 145 2.0
e 27 267 3.0
e 27 244 1.0
e 27 110 1.0
e 27 51 3.0
e 28 167 1.0
e 28 311 18.0
e 28 133 1.0
e 28 145 1.0
e 29 146 2.0
e 29 166 2.0
e 29 312 37.0
e 29 21 1.0
e 30 213 2.0
e 30 159 2.0
e 30 115 2.0
e 30 173 40.0
e 31 289 1.0
e 31 150 2.0
e 31 202 1.0
e 31 89 4.0
e 32 291 1.0
e 32 180 17.0
e 32 136 1.0
e 32 253 2.0
e 33 60 1.0
e 33 57 1.0
e 33 148 1.0
e 33 55 1.0
e 34 98 13.0
e 34 88 17.0
e 34 170 29.0
e 34 0 28.0
e 34 51 49.0
e 34 261 47.0
e 35 300 1.0
e 35 26 2.0
e 35 118 1.0
e 35 83 2.0
e 36 157 1.0
e 36 235 3.0
e 36 53 21.0
e 36 126 3.0
e 37 11 1.0
e 37 296 2.0
e 37 39 1.0
e 37 69 1.0
e 38 51 36.0
e 38 213 19.0
e 38 12 8.0
e 38 127 43.0
e 38 272 16.0
e 38 204 6.0
e 39 274 8.0
e 39 68 2.0
e 39 278 1.0
e 39 239 1.0
e 40 126 1.0
e 40 18 1.0
e 40 317 2.0
e 40 131 1.0
e 41 197 2.0
e 41 194 1.0
e 41 158 1.0
e 42 148 2.0
e 42 293 1.0
e 42 38 18.0
e 42 194 2.0
e 43 2 1.0
e 43 131 1.0
e 43 138 2.0
e 43 203 1.0
e 44 41 1.0
e 44 313 1.0
e 44 280 1.0
e 44 0 1.0
e 45 253 1.0
e 45 104 1.0
e 45 172 1.0
e 45 224 1.0
e 46 177 1.0
e 46 219 33.0
e 46 48 1.0
e 46 244 1.0
e 47 53 43.0
e 47 108 2.0
e 47 104 1.0
e 47 13 1.0
e 48 187 1.0
e 48 50 1.0
e 48 173 19.0
e 48 244 1.0
e 49 138 1.0
e 49 197 1.0
e 49 190 1.0
e 49 79 49.0
e 50 82 17.0
e 50 286 1.0
e 50 304 1.0
e 50 227 1.0
e 51 289 2.0
e 51 190 28.0
e 51 41 42.0
e 51 297 6.0
e 52 128 1.0
e 52 260 1.0
e 52 144 1.0
e 52 110 1.0
e 53 88 20.0
e 53 269 1.0
e 53 211 38.0
e 53 311 18.0
e 53 24 23.0
e 54 283 3.0
e 54 88 1.0
e 54 113 33.0
e 54 17 17.0
e 55 106 1.0
e 55 163 35.0
e 55 239 1.0
e 55 172 2.0
e 56 58 1.0
e 56 140 1.0
e 56 198 1.0
e 56 70 1.0
e 57 257 2.0
e 57 63 2.0
e 57 225 1.0
e 57 100 1.0
e 58 69 1.0
e 58 204 44.0
e 58 122 1.0
e 59 314 1.0
e 59 241 1.0
e 59 248 2.0
e 59 177 1.0
e 60 251 1.0
e 60 153 2.0
e 60 161 1.0
e 60 94 1.0
e 61 123 1.0
e 61 114 5.0
e 61 121 1.0
e 61 218 1.0
e 62 246 1.0
e 62 130 1.0
e 62 11 1.0
e 62 229 2.0
e 63 103 1.0
e 63 192 1.0
e 63 157 2.0
e 63 225 1.0
e 64 65 1.0
e 64 144 1.0
e 64 174 1.0
e 64 75 1.0
e 65 185 2.0
e 65 153 1.0
e 65 223 2.0
e 65 117 1.0
e 66 250 3.0
e 66 111 1.0
e 66 112 1.0
e 66 217 9.0
e 67 145 1.0
e 67 48 3.0
e 67 1 1.0
e 67 238 1.0
e 68 66 1.0
e 68 166 2.0
e 68 113 46.0
e 68 21 2.0
e 69 258 1.0
e 69 203 1.0
e 69 86 2.0
e 69 239 1.0
e 70 134 1.0
e 70 18 2.0
e 70 76 1.0
e 70 108 2.0
e 71 179 1.0
e 71 109 2.0
e 71 41 2.0
e 72 293 22.0
e 72 129 17.0
e 72 96 24.0
e 72 41 13.0
e 72 154 14.0
e 73 8 1.0
e 73 82 8.0
e 73 17 33.0
e 73 151 2.0
e 74 238 1.0
e 74 279 1.0
e 74 134 1.0
e 74 104 1.0
e 75 222 1.0
e 75 211 1.0
e 75 150 1.0
e 75 201 3.0
e 76 220 1.0
e 76 175 1.0
e 76 189 1.0
e 76 124 1.0
e 77 253 1.0
e 77 133 2.0
e 77 97 1.0
e 77 237 1.0
e 78 292 2.0
e 78 131 2.0
e 78 265 1.0
e 78 162 48.0
e 79 34 18.0
e 79 28 43.0
e 79 237 39.0
e 79 314 29.0
e 79 294 7.0
e 79 72 11.0
e 79 154 24.0
e 80 265 2.0
e 80 228 1.0
e 80 239 1.0
e 80 67 1.0
e 81 216 1.0
e 81 180 9.0
e 81 106 1.0
e 81 168 32.0
e 82 46 6.0
e 82 13 27.0
e 82 142 36.0
e 82 250 23.0
e 83 55 1.0
e 83 47 1.0
e 83 308 1.0
e 84 282 1.0
e 84 23 1.0
e 84 308 1.0
e 84 113 17.0
e 85 264 1.0
e 85 177 2.0
e 85 63 2.0
e 85 33 1.0
e 86 116 1.0
e 86 300 1.0
e 86 155 1.0
e 86 289 1.0
e 87 132 1.0
e 87 150 2.0
e 87 242 1.0
e 87 171 3.0
e 88 206 1.0
e 88 24 3.0
e 88 70 1.0
e 88 28 1.0
e 89 192 26.0
e 89 111 10.0
e 89 199 29.0
e 89 132 13.0
e 90 1 1.0
e 90 270 2.0
e 90 173 5.0
e 90 75 1.0
e 91 159 1.0
e 91 191 1.0
e 91 56 1.0
e 91 131 1.0
e 92 6 1.0
e 92 315 1.0
e 92 310 1.0
e 92 285 1.0
e 93 248 1.0
e 93 167 1.0
e 93 234 1.0
e 93 309 2.0
e 94 210 1.0
e 94 255 1.0
e 94 123 2.0
e 94 172 1.0
e 95 211 1.0
e 95 64 1.0
e 95 243 2.0
e 95 91 1.0
e 96 16 5.0
e 96 258 45.0
e 96 169 3.0
e 96 230 25.0
e 96 79 45.0
e 97 37 2.0
e 97 276 1.0
e 97 312 36.0
e 97 318 2.0
e 98 223 1.0
e 98 15 1.0
e 98 105 1.0
e 98 309 2.0
e 99 47 2.0
e 99 48 1.0
e 99 281 1.0
e 99 7 36.0
e 100 189 1.0
e 100 4 2.0
e 100 208 1.0
e 100 29 1.0
e 101 57 43.0
e 101 59 12.0
e 101 184 40.0
e 101 235 36.0
e 101 311 25.0
e 101 180 3.0
e 102 21 1.0
e 102 153 2.0
e 102 183 1.0
e 102 45 1.0
e 103 314 1.0
e 103 8 1.0
e 103 307 1.0
e 103 126 1.0
e 104 119 1.0
e 104 19 41.0
e 104 106 2.0
e 104 209 1.0
e 105 80 1.0
e 105 138 1.0
e 105 202 1.0
e 105 246 1.0
e 106 95 1.0
e 106 67 2.0
e 106 161 1.0
e 106 188 1.0
e 107 81 1.0
e 107 9 1.0
e 107 64 1.0
e 107 43 1.0
e 108 161 3.0
e 108 25 2.0
e 108 136 2.0
e 108 12 18.0
e 109 6 2.0
e 109 163 44.0
e 109 310 2.0
e 109 302 2.0
e 110 198 2.0
e 110 204 44.0
e 110 44 1.0
e 110 113 37.0
e 111 165 1.0
e 111 41 2.0
e 111 304 1.0
e 111 109 1.0
e 112 62 1.0
e 112 42 1.0
e 112 313 1.0
e 112 144 1.0
e 113 237 14.0
e 113 71 23.0
e 113 251 2.0
e 113 159 31.0
e 114 290 42.0
e 114 124 27.0
e 114 95 48.0
e 114 40 9.0
e 114 261 12.0
e 115 193 1.0
e 115 64 1.0
e 115 47 1.0
e 115 280 2.0
e 116 252 2.0
e 116 82 39.0
e 116 3 2.0
e 116 223 1.0
e 117 118 1.0
e 117 137 1.0
e 117 0 1.0
e 117 3 1.0
e 118 166 1.0
e 118 168 1.0
e 118 156 21.0
e 118 179 1.0
e 119 234 1.0
e 119 16 2.0
e 119 169 49.0
e 119 174 2.0
e 120 245 45.0
e 120 75 33.0
e 120 35 17.0
e 120 170 40.0
e 120 217 34.0
e 120 272 33.0
e 120 261 41.0
e 121 70 2.0
e 121 296 1.0
e 121 19 8.0
e 121 69 1.0
e 122 20 1.0
e 122 35 1.0
e 122 286 1.0
e 122 8 1.0
e 123 271 2.0
e 123 193 1.0
e 123 99 2.0
e 123 307 3.0
e 124 0 1.0
e 124 245 1.0
e 124 289 1.0
e 124 164 1.0
e 125 38 10.0
e 125 177 1.0
e 125 269 1.0
e 125 107 1.0
e 126 256 1.0
e 126 176 1.0
e 126 191 1.0
e 126 264 1.0
e 127 279 1.0
e 127 206 1.0
e 127 42 2.0
e 127 22 1.0
e 128 318 2.0
e 128 160 1.0
e 128 125 1.0
e 128 77 1.0
e 129 263 1.0
e 129 108 1.0
e 129 133 1.0
e 129 287 1.0
e 130 6 1.0
e 130 106 2.0
e 130 117 1.0
e 130 151 2.0
e 131 22 1.0
e 131 193 1.0
e 131 152 1.0
e 131 68 2.0
e 132 23 2.0
e 132 250 1.0
e 132 248 1.0
e 132 30 2.0
e 133 136 2.0
e 133 89 44.0
e 133 248 1.0
e 133 5 1.0
e 134 165 1.0
e 134 142 1.0
e 134 283 2.0
e 134 128 1.0
e 135 225 23.0
e 135 60 44.0
e 135 189 7.0
e 135 31 49.0
e 135 261 16.0
e 135 312 43.0
e 135 53 10.0
e 135 272 18.0
e 135 114 4.0
e 136 56 1.0
e 136 120 31.0
e 136 230 2.0
e 136 109 1.0
e 137 24 33.0
e 137 37 1.0
e 137 74 1.0
e 137 192 1.0
e 138 126 2.0
e 138 185 1.0
e 138 294 24.0
e 138 293 2.0
e 139 193 1.0
e 139 185 1.0
e 139 59 1.0
e 139 208 1.0
e 140 187 1.0
e 140 178 1.0
e 140 5 1.0
e 140 75 1.0
e 141 83 1.0
e 141 144 2.0
e 141 134 2.0
e 141 169 44.0
e 142 159 1.0
e 142 72 36.0
e 142 155 1.0
e 142 225 1.0
e 143 316 25.0
e 143 269 1.0
e 143 266 1.0
e 143 160 2.0
e 144 218 1.0
e 144 301 1.0
e 144 276 1.0
e 144 221 1.0
e 145 139 1.0
e 145 254 1.0
e 145 16 1.0
e 145 70 1.0
e 146 236 1.0
e 146 280 2.0
e 146 6 1.0
e 146 204 45.0
e 147 284 1.0
e 147 123 1.0
e 147 54 2.0
e 147 24 46.0
e 148 264 2.0
e 148 227 1.0
e 148 158 1.0
e 148 250 1.0
e 149 109 1.0
e 149 242 1.0
e 149 260 1.0
e 149 2 1.0
e 150 314 1.0
e 150 249 1.0
e 150 43 1.0
e 150 299 21.0
e 151 94 1.0
e 151 312 31.0
e 151 95 2.0
e 151 39 1.0
e 152 127 1.0
e 152 97 2.0
e 152 182 1.0
e 152 122 1.0
e 153 263 1.0
e 153 11 1.0
e 153 225 1.0
e 154 248 45.0
e 154 245 38.0
e 154 243 10.0
e 154 148 1.0
e 154 316 1.0
e 154 7 20.0
e 154 204 30.0
e 155 151 1.0
e 155 102 1.0
e 155 228 1.0
e 155 157 1.0
e 156 170 42.0
e 156 61 43.0
e 156 293 38.0
e 156 246 38.0
e 157 217 14.0
e 157 220 1.0
e 157 275 1.0
e 158 283 2.0
e 158 130 1.0
e 158 234 1.0
e 158 67 1.0
e 159 268 1.0
e 159 294 4.0
e 159 62 1.0
e 159 236 1.0
e 160 184 1.0
e 160 261 3.0
e 160 117 1.0
e 160 171 3.0
e 161 17 8.0
e 161 21 1.0
e 161 82 4.0
e 161 290 2.0
e 162 253 40.0
e 162 277 12.0
e 162 178 27.0
e 162 26 5.0
e 162 163 45.0
e 162 120 23.0
e 163 85 19.0
e 163 177 48.0
e 163 0 22.0
e 163 264 9.0
e 164 236 1.0
e 164 206 1.0
e 164 31 2.0
e 164 113 16.0
e 165 51 44.0
e 165 182 1.0
e 165 107 1.0
e 165 52 1.0
e 166 276 1.0
e 166 315 2.0
e 166 46 1.0
e 166 168 6.0
e 167 12 42.0
e 167 150 2.0
e 167 152 1.0
e 167 35 1.0
e 168 289 48.0
e 168 47 25.0
e 168 291 7.0
e 168 104 2.0
e 168 272 35.0
e 169 204 2.0
e 169 305 49.0
e 169 94 21.0
e 169 123 39.0
e 169 207 45.0
e 170 249 2.0
e 170 178 2.0
e 170 8 1.0
e 170 63 1.0
e 171 222 2.0
e 171 100 1.0
e 171 293 2.0
e 171 156 30.0
e 172 92 1.0
e 172 249 2.0
e 172 29 1.0
e 172 81 1.0
e 173 153 19.0
e 173 37 2.0
e 173 113 33.0
e 174 110 1.0
e 174 269 1.0
e 174 126 1.0
e 174 280 1.0
e 175 249 1.0
e 175 273 1.0
e 175 55 2.0
e 175 85 2.0
e 176 148 1.0
e 176 46 1.0
e 176 65 1.0
e 176 5 1.0
e 177 15 1.0
e 177 292 1.0
e 177 127 2.0
e 177 131 1.0
e 178 279 1.0
e 178 203 2.0
e 178 185 1.0
e 178 9 1.0
e 179 172 1.0
e 179 178 1.0
e 179 218 1.0
e 179 124 1.0
e 180 190 44.0
e 180 241 28.0
e 180 7 24.0
e 180 233 11.0
e 181 75 11.0
e 181 185 29.0
e 181 113 39.0
e 181 211 30.0
e 181 154 28.0
e 181 156 43.0
e 181 272 33.0
e 182 104 1.0
e 182 56 1.0
e 182 277 1.0
e 182 93 1.0
e 183 274 3.0
e 183 29 1.0
e 183 182 1.0
e 183 47 1.0
e 184 142 1.0
e 184 19 46.0
e 184 20 1.0
e 184 284 1.0
e 185 262 2.0
e 185 228 2.0
e 185 123 2.0
e 185 298 2.0
e 186 236 1.0
e 186 91 1.0
e 186 119 1.0
e 186 311 26.0
e 187 258 1.0
e 187 15 1.0
e 187 202 1.0
e 187 88 1.0
e 188 263 3.0
e 188 50 1.0
e 188 153 2.0
e 188 164 2.0
e 189 41 1.0
e 189 267 1.0
e 189 128 1.0
e 189 153 2.0
e 190 314 2.0
e 190 201 2.0
e 190 82 6.0
e 190 71 1.0
e 191 131 1.0
e 191 269 1.0
e 191 152 1.0
e 191 180 21.0
e 192 115 2.0
e 192 165 1.0
e 192 69 1.0
e 192 296 1.0
e 193 22 1.0
e 193 305 1.0
e 193 221 1.0
e 193 3 1.0
e 194 157 1.0
e 194 300 2.0
e 194 278 2.0
e 194 50 2.0
e 195 176 1.0
e 195 267 1.0
e 195 293 1.0
e 195 29 2.0
e 196 98 2.0
e 196 232 1.0
e 196 306 1.0
e 196 172 1.0
e 197 290 1.0
e 197 79 26.0
e 197 75 1.0
e 197 36 1.0
e 198 162 9.0
e 198 278 1.0
e 198 195 1.0
e 198 161 1.0
e 199 43 1.0
e 199 28 1.0
e 199 9 1.0
e 199 130 1.0
e 200 133 2.0
e 200 13 1.0
e 200 97 1.0
e 200 61 1.0
e 201 30 1.0
e 201 183 1.0
e 201 49 2.0
e 201 164 2.0
e 202 252 1.0
e 202 290 3.0
e 202 283 1.0
e 202 35 1.0
e 203 58 1.0
e 203 235 1.0
e 203 107 1.0
e 203 81 1.0
e 204 88 16.0
e 204 302 15.0
e 204 140 9.0
e 204 242 35.0
e 205 254 1.0
e 205 118 1.0
e 205 221 1.0
e 205 14 1.0
e 206 305 1.0
e 206 253 1.0
e 206 272 38.0
e 206 33 1.0
e 207 280 11.0
e 207 286 17.0
e 207 199 24.0
e 207 211 39.0
e 208 127 2.0
e 208 7 25.0
e 208 31 1.0
e 208 5 1.0
e 209 153 2.0
e 209 258 1.0
e 209 271 1.0
e 209 143 1.0
e 210 115 1.0
e 210 29 1.0
e 210 119 1.0
e 210 276 1.0
e 211 238 2.0
e 211 153 1.0
e 211 159 1.0
e 211 46 1.0
e 212 37 2.0
e 212 242 1.0
e 212 18 1.0
e 212 302 1.0
e 213 99 1.0
e 213 174 1.0
e 213 15 1.0
e 213 156 24.0
e 214 36 3.0
e 214 177 2.0
e 214 46 1.0
e 214 129 1.0
e 215 16 2.0
e 215 299 28.0
e 215 100 1.0
e 215 15 1.0
e 216 50 1.0
e 216 161 1.0
e 216 233 1.0
e 216 39 1.0
e 217 187 21.0
e 217 209 15.0
e 217 298 19.0
e 217 208 23.0
e 218 133 2.0
e 218 97 2.0
e 218 70 1.0
e 218 103 1.0
e 219 206 28.0
e 219 20 19.0
e 219 191 22.0
e 219 194 4.0
e 219 96 4.0
e 219 135 13.0
e 219 181 3.0
e 220 300 1.0
e 220 156 39.0
e 220 102 1.0
e 220 113 36.0
e 221 313 1.0
e 221 243 2.0
e 221 263 1.0
e 221 105 1.0
e 222 179 1.0
e 222 266 1.0
e 222 118 1.0
e 222 50 1.0
e 223 50 1.0
e 223 1 1.0
e 223 234 2.0
e 223 96 6.0
e 224 108 1.0
e 224 22 1.0
e 224 42 1.0
e 224 36 2.0
e 225 116 2.0
e 225 47 1.0
e 225 248 1.0
e 225 186 1.0
e 226 243 1.0
e 226 10 1.0
e 226 219 35.0
e 226 304 2.0
e 227 208 1.0
e 227 188 2.0
e 227 187 2.0
e 227 309 2.0
e 228 60 1.0
e 228 33 1.0
e 228 101 18.0
e 229 214 2.0
e 229 166 2.0
e 229 137 2.0
e 229 113 9.0
e 230 254 1.0
e 230 268 1.0
e 230 187 1.0
e 230 74 3.0
e 231 159 1.0
e 231 227 1.0
e 231 179 1.0
e 231 93 1.0
e 232 207 32.0
e 232 191 2.0
e 232 279 1.0
e 232 68 2.0
e 233 224 2.0
e 233 189 2.0
e 233 125 2.0
e 233 40 1.0
e 234 51 45.0
e 234 230 3.0
e 234 4 1.0
e 234 34 47.0
e 235 236 1.0
e 235 128 1.0
e 235 170 1.0
e 235 78 2.0
e 236 87 1.0
e 236 155 1.0
e 236 279 2.0
e 237 181 34.0
e 237 114 16.0
e 237 216 1.0
e 237 257 2.0
e 238 201 1.0
e 238 229 1.0
e 238 48 2.0
e 238 110 1.0
e 239 256 1.0
e 239 148 2.0
e 239 77 1.0
e 240 273 1.0
e 240 207 2.0
e 240 289 2.0
e 240 268 1.0
e 241 1 1.0
e 241 84 1.0
e 241 200 1.0
e 241 299 39.0
e 242 80 1.0
e 242 184 1.0
e 242 223 1.0
e 242 89 14.0
e 243 45 1.0
e 243 47 1.0
e 243 159 1.0
e 243 281 2.0
e 244 69 1.0
e 244 228 2.0
e 244 163 21.0
e 244 232 1.0
e 245 62 1.0
e 245 226 1.0
e 245 216 1.0
e 245 318 2.0
e 246 185 1.0
e 246 146 2.0
e 246 157 2.0
e 246 312 41.0
e 247 231 2.0
e 247 258 1.0
e 247 124 2.0
e 247 152 1.0
e 248 203 1.0
e 248 35 1.0
e 248 163 25.0
e 248 5 1.0
e 249 191 1.0
e 249 282 1.0
e 249 99 3.0
e 249 162 28.0
e 250 112 2.0
e 250 273 2.0
e 250 8 1.0
e 250 152 1.0
e 251 160 1.0
e 251 314 2.0
e 251 129 1.0
e 251 180 10.0
e 252 50 1.0
e 252 102 1.0
e 252 76 1.0
e 252 74 1.0
e 253 166 1.0
e 253 108 1.0
e 253 118 2.0
e 254 23 1.0
e 254 284 1.0
e 254 217 14.0
e 254 289 1.0
e 255 277 1.0
e 255 293 1.0
e 255 101 12.0
e 255 299 26.0
e 256 216 1.0
e 256 106 1.0
e 256 10 1.0
e 256 140 1.0
e 257 18 1.0
e 257 109 2.0
e 257 216 2.0
e 257 230 2.0
e 258 217 21.0
e 258 85 1.0
e 258 59 1.0
e 259 263 1.0
e 259 50 1.0
e 259 223 1.0
e 259 198 2.0
e 260 197 1.0
e 260 236 1.0
e 260 95 2.0
e 260 118 1.0
e 261 73 42.0
e 261 4 29.0
e 261 0 43.0
e 261 195 31.0
e 262 11 1.0
e 262 203 1.0
e 262 198 1.0
e 262 268 1.0
e 263 84 1.0
e 263 136 1.0
e 263 55 1.0
e 263 61 1.0
e 264 252 1.0
e 264 317 1.0
e 264 77 1.0
e 264 173 39.0
e 265 144 1.0
e 265 285 1.0
e 265 161 2.0
e 265 72 14.0
e 266 191 1.0
e 266 179 1.0
e 266 275 1.0
e 266 5 1.0
e 267 12 42.0
e 267 63 1.0
e 267 137 1.0
e 267 112 3.0
e 268 256 1.0
e 268 232 1.0
e 268 16 1.0
e 268 108 2.0
e 269 131 1.0
e 269 252 2.0
e 269 123 1.0
e 269 155 1.0
e 270 25 2.0
e 270 44 2.0
e 270 130 1.0
e 270 158 1.0
e 271 207 28.0
e 271 131 2.0
e 271 3 2.0
e 271 198 2.0
e 272 186 36.0
e 272 277 26.0
e 272 235 16.0
e 272 218 28.0
e 273 283 2.0
e 273 102 2.0
e 273 253 1.0
e 273 72 35.0
e 274 14 47.0
e 274 50 5.0
e 274 181 13.0
e 274 24 47.0
e 274 316 34.0
e 274 207 40.0
e 274 101 21.0
e 275 226 1.0
e 275 55 2.0
e 275 140 1.0
e 275 186 1.0
e 276 198 2.0
e 276 85 1.0
e 276 218 1.0
e 276 14 2.0
e 277 39 1.0
e 277 152 1.0
e 277 311 9.0
e 277 209 1.0
e 278 131 1.0
e 278 196 1.0
e 278 175 1.0
e 278 249 1.0
e 279 290 1.0
e 279 237 2.0
e 279 277 1.0
e 279 125 1.0
e 280 170 3.0
e 280 4 1.0
e 280 283 1.0
e 280 107 1.0
e 281 201 1.0
e 281 66 1.0
e 281 277 1.0
e 281 244 1.0
e 282 76 1.0
e 282 82 32.0
e 282 255 1.0
e 282 149 1.0
e 283 241 1.0
e 283 173 22.0
e 283 306 2.0
e 283 262 1.0
e 284 5 1.0
e 284 37 1.0
e 284 25 1.0
e 284 78 1.0
e 285 240 1.0
e 285 140 1.0
e 285 239 1.0
e 285 294 25.0
e 286 112 1.0
e 286 165 3.0
e 286 224 1.0
e 286 116 1.0
e 287 215 2.0
e 287 176 1.0
e 287 213 1.0
e 287 315 1.0
e 288 278 1.0
e 288 146 1.0
e 288 187 2.0
e 288 10 1.0
e 289 161 1.0
e 289 208 1.0
e 289 133 1.0
e 290 195 3.0
e 290 6 2.0
e 290 77 2.0
e 290 174 2.0
e 291 294 6.0
e 291 28 1.0
e 291 203 1.0
e 291 88 1.0
e 292 140 1.0
e 292 168 47.0
e 292 315 3.0
e 292 48 1.0
e 293 127 1.0
e 293 221 1.0
e 293 107 1.0
e 293 145 1.0
e 294 189 27.0
e 294 167 5.0
e 294 318 13.0
e 294 129 31.0
e 295 109 1.0
e 295 31 1.0
e 295 136 1.0
e 295 253 1.0
e 296 73 1.0
e 296 18 1.0
e 296 160 3.0
e 296 210 1.0
e 297 195 1.0
e 297 212 2.0
e 297 114 14.0
e 297 259 1.0
e 298 110 3.0
e 298 80 1.0
e 298 59 1.0
e 298 44 1.0
e 299 304 36.0
e 299 46 14.0
e 299 106 44.0
e 299 279 25.0
e 300 87 1.0
e 300 293 1.0
e 300 124 1.0
e 300 57 1.0
e 301 53 2.0
e 301 169 7.0
e 301 265 1.0
e 301 38 45.0
e 302 119 1.0
e 302 225 2.0
e 302 250 1.0
e 302 314 2.0
e 303 96 15.0
e 303 243 1.0
e 303 258 2.0
e 303 0 1.0
e 304 255 2.0
e 304 39 3.0
e 304 176 2.0
e 305 268 1.0
e 305 43 1.0
e 305 115 1.0
e 305 283 1.0
e 306 258 1.0
e 306 246 1.0
e 306 198 2.0
e 306 312 12.0
e 307 178 1.0
e 307 51 2.0
e 307 111 2.0
e 307 19 18.0
e 308 215 1.0
e 308 127 2.0
e 308 151 3.0
e 308 264 1.0
e 309 311 35.0
e 309 11 1.0
e 309 23 2.0
e 309 128 1.0
e 310 17 37.0
e 310 297 1.0
e 310 16 1.0
e 310 122 2.0
e 311 90 42.0
e 311 129 22.0
e 311 238 29.0
e 311 46 32.0
e 312 69 44.0
e 312 118 38.0
e 312 113 31.0
e 312 276 1.0
e 313 60 2.0
e 313 104 1.0
e 313 164 1.0
e 313 213 1.0
e 314 298 1.0
e 314 2 1.0
e 314 167 1.0
e 314 189 1.0
e 315 317 2.0
e 315 303 1.0
e 315 12 48.0
e 315 98 1.0
e 316 39 22.0
e 316 286 34.0
e 316 257 48.0
e 316 118 35.0
e 316 34 29.0
e 316 12 21.0
e 317 179 1.0
e 317 196 1.0
e 317 64 1.0
e 317 267 1.0
e 318 305 2.0
e 318 121 1.0
e 318 285 2.0
e 318 211 2.0
e 319 163 43.0
e 319 167 1.0
e 319 90 1.0
e 319 106 1.0
